data;
param SP1:=1;
param SP2:=5;
param init1:=0;
param init2:=0;
param Grn1 :=5;
param Grn2 :=5;
param y         	:=	1  3	2  3	3  3	4  3	5  3	6  3	7  3	8  3;
param red       	:=	1  2	2  2	3  2	4  2	5  2	6  2	7  2	8  2;
param gmin      	:=	1  7	2  7	3  7	4  7	5  7	6  7	7  7	8  7;
param gmax      	:=	1  35	2  35	3  35	4  35	5  35	6  35	7  35	8  35;

param priorityType:= 1 2 2 0 3 0 4 0 5 0 6 0 7 0 8 0 9 0 10 0  ; 
param PrioWeigth  := 1 0 2 1 3 0 4 0 5 0 6 0 7 0 8 0 9 0 10 0 ; 
param vehSp       := 1 15 2 15 3 0 4 0 5 0 6 0 7 0 8 0 9 0 10 0; 
param disChargSp  := 1 3.5 2 3.5 3 0 4 0 5 0 6 0 7 0 8 0 9 0 10 0; 
param qSp         := 1 2 2 2 3 0 4 0 5 0 6 0 7 0 8 0 9 0 10 0; 
param n           := 1 4.7 2 4.7 3 0 4 0 5 0 6 0 7 0 8 0 9 0 10 0; 
param lmax        := 1 31 2 31 3 0 4 0 5 0 6 0 7 0 8 0 9 0 10 0; 
param vehDis(tr)  : 1 2 3 4 5 6 7 8:= 
1 . 300 . . . . . .
2 . . . . . . . 200;
end;
